n_res = 4;
rcap = [28, 22, 36, 41];
rtype = [1, 1, 2, 2];
n_tasks = 10;
modes = [ {1, 2, 3}, {4, 5, 6}, {7, 8, 9}, {10, 11, 12}, {13, 14, 15}, {16, 17, 18}, {19, 20, 21}, {22, 23, 24}, {25, 26, 27}, {28, 29, 30} ];
succ = [ {9}, {6}, {4, 5, 10}, {8}, {8, 9}, {7, 8}, {9, 10}, {}, {}, {} ];
n_opt = 30;
dur = [4, 4, 8, 4, 6, 9, 3, 6, 10, 2, 8, 9, 2, 6, 9, 1, 3, 6, 1, 3, 4, 1, 2, 2, 2, 5, 9, 3, 8, 8];
rreq = [| 10, 10, 10, 10,  9,  7,  2,  1,  1,  8,  5,  4,  7,  4,  3,  4,  4,  4,  5,  3,  2,  6,  3,  5,  7,  5,  5,  7,  7,  5
        |  9,  8,  4,  5,  3,  2,  6,  4,  4,  6,  5,  3,  8,  5,  5,  7,  6,  4,  8,  7,  7,  6,  6,  5, 10,  8,  8, 10,  4,  4
        |  9,  0,  0,  0,  0,  3,  8,  0,  0,  4,  4,  4,  0,  0,  4,  4,  0,  1,  0,  0,  0,  0,  5,  4,  3,  0,  1,  0,  8, 10
        |  0,  7,  6,  5,  5,  0,  0,  6,  4,  0,  0,  0,  7,  6,  0,  0,  3,  0,  4,  2,  2,  9,  0,  0,  0, 10,  0,  7,  0,  0 |];
